nzones = 0;
nturb = 10;

R = 38.5;

w = 3000;
h = 3000;

zx = [];
zy = [];
zwidth = [];
zheight = [];

init_x = [ 0, 0, 1000, 1000, 1000, 2000, 2000, 3000, 3000, 3000 ];
init_y = [ 0, 3000, 0, 1500, 3000, 1500, 3000, 0, 1500, 3000 ];
